6
 9999   22   40   15   35   20   30
   22 9999    7   10   15   35    8
   40    7 9999   19   14   22    5
   15   10   19 9999   12   10    9
   35   15   14   12 9999    8    7
   20   35   22   10    8 9999   10
   30    8    5    9    7   10 9999
